(set-logic QF_LIA)
(declare-fun x0 () Int)
(declare-fun x1 () Int)
(declare-fun x2 () Int)
(declare-fun x3 () Int)
(declare-fun x4 () Int)
(declare-fun x5 () Int)
(declare-fun x6 () Int)
(declare-fun x7 () Int)
(declare-fun x8 () Int)
(declare-fun x9 () Int)
(declare-fun A0 () Bool)
(declare-fun A1 () Bool)
(declare-fun A2 () Bool)
(declare-fun A3 () Bool)
(declare-fun A4 () Bool)
(declare-fun A5 () Bool)
(declare-fun A6 () Bool)
(declare-fun A7 () Bool)
(declare-fun A8 () Bool)
(declare-fun A9 () Bool)
(assert (let ((.def_0 (* (- 1) x6))) (let ((.def_1 (< .def_0 (- 1)))) (let ((.def_2 (* 1 x1))) (let ((.def_3 (* 1 x2))) (let ((.def_4 (+ .def_3 .def_2))) (let ((.def_5 (< .def_4 1))) (let ((.def_6 (and .def_5 .def_1))) (let ((.def_7 (not .def_6))) (let ((.def_8 (* (- 1) x9))) (let ((.def_9 (* (- 1) x0))) (let ((.def_10 (+ .def_9 .def_8))) (let ((.def_11 (< .def_10 1))) (let ((.def_12 (not .def_11))) (let ((.def_13 (< .def_9 (- 1)))) (let ((.def_14 (not .def_13))) (let ((.def_15 (and .def_14 .def_12))) (let ((.def_16 (= .def_15 .def_7))) (let ((.def_17 (* (- 1) x4))) (let ((.def_18 (< .def_17 (- 1)))) (let ((.def_19 (and .def_18 A4))) (let ((.def_20 (not A5))) (let ((.def_21 (or A2 .def_20))) (let ((.def_22 (and .def_21 .def_19))) (let ((.def_23 (or .def_22 .def_16))) (let ((.def_24 (* 1 x9))) (let ((.def_25 (< .def_24 (- 1)))) (let ((.def_26 (and .def_25 A4))) (let ((.def_27 (not .def_26))) (let ((.def_28 (* (- 1) x3))) (let ((.def_29 (* (- 1) x7))) (let ((.def_30 (+ .def_29 .def_28))) (let ((.def_31 (< .def_30 (- 1)))) (let ((.def_32 (and .def_31 A5))) (let ((.def_33 (and .def_32 .def_27))) (let ((.def_34 (< .def_0 1))) (let ((.def_35 (and .def_34 A6))) (let ((.def_36 (not .def_35))) (let ((.def_37 (< .def_2 1))) (let ((.def_38 (and A8 .def_37))) (let ((.def_39 (or .def_38 .def_36))) (let ((.def_40 (not .def_39))) (let ((.def_41 (and .def_40 .def_33))) (let ((.def_42 (and .def_41 .def_23))) (let ((.def_43 (not .def_42))) (let ((.def_44 (not A6))) (let ((.def_45 (* 1 x3))) (let ((.def_46 (+ .def_0 .def_45))) (let ((.def_47 (< .def_46 1))) (let ((.def_48 (not .def_47))) (let ((.def_49 (or .def_48 .def_44))) (let ((.def_50 (not .def_49))) (let ((.def_51 (not A3))) (let ((.def_52 (not A7))) (let ((.def_53 (= .def_52 .def_51))) (let ((.def_54 (not .def_53))) (let ((.def_55 (and .def_54 .def_50))) (let ((.def_56 (not .def_55))) (let ((.def_57 (or .def_20 A4))) (let ((.def_58 (* 1 x5))) (let ((.def_59 (+ .def_58 .def_29))) (let ((.def_60 (< .def_59 1))) (let ((.def_61 (not .def_60))) (let ((.def_62 (or .def_44 .def_61))) (let ((.def_63 (not .def_62))) (let ((.def_64 (or .def_63 .def_57))) (let ((.def_65 (and .def_64 .def_56))) (let ((.def_66 (not .def_65))) (let ((.def_67 (or .def_51 .def_44))) (let ((.def_68 (not .def_67))) (let ((.def_69 (* (- 1) x8))) (let ((.def_70 (< .def_69 (- 1)))) (let ((.def_71 (not .def_70))) (let ((.def_72 (and A8 .def_71))) (let ((.def_73 (not .def_72))) (let ((.def_74 (or .def_73 .def_68))) (let ((.def_75 (not .def_74))) (let ((.def_76 (not A1))) (let ((.def_77 (not A4))) (let ((.def_78 (and .def_77 .def_76))) (let ((.def_79 (not .def_78))) (let ((.def_80 (not A9))) (let ((.def_81 (or .def_80 A5))) (let ((.def_82 (not .def_81))) (let ((.def_83 (= .def_82 .def_79))) (let ((.def_84 (not .def_83))) (let ((.def_85 (and .def_84 .def_75))) (let ((.def_86 (not .def_85))) (let ((.def_87 (and .def_86 .def_66))) (let ((.def_88 (not .def_87))) (let ((.def_89 (or .def_88 .def_43))) (let ((.def_90 (and .def_44 .def_18))) (let ((.def_91 (not .def_90))) (let ((.def_92 (* (- 1) x5))) (let ((.def_93 (< .def_92 1))) (let ((.def_94 (or .def_76 .def_93))) (let ((.def_95 (or .def_94 .def_91))) (let ((.def_96 (+ .def_8 .def_58))) (let ((.def_97 (< .def_96 (- 1)))) (let ((.def_98 (* 1 x6))) (let ((.def_99 (< .def_98 1))) (let ((.def_100 (or .def_99 .def_97))) (let ((.def_101 (or .def_20 .def_52))) (let ((.def_102 (or .def_101 .def_100))) (let ((.def_103 (not .def_102))) (let ((.def_104 (= .def_103 .def_95))) (let ((.def_105 (not .def_104))) (let ((.def_106 (+ .def_28 .def_98))) (let ((.def_107 (< .def_106 (- 1)))) (let ((.def_108 (or A2 .def_107))) (let ((.def_109 (not .def_108))) (let ((.def_110 (or A4 A1))) (let ((.def_111 (not .def_110))) (let ((.def_112 (or .def_111 .def_109))) (let ((.def_113 (* (- 1) x1))) (let ((.def_114 (< .def_113 1))) (let ((.def_115 (not .def_114))) (let ((.def_116 (and .def_76 .def_115))) (let ((.def_117 (and A0 A5))) (let ((.def_118 (and .def_117 .def_116))) (let ((.def_119 (not .def_118))) (let ((.def_120 (or .def_119 .def_112))) (let ((.def_121 (and .def_120 .def_105))) (let ((.def_122 (not A8))) (let ((.def_123 (and .def_114 .def_122))) (let ((.def_124 (and A1 A1))) (let ((.def_125 (not .def_124))) (let ((.def_126 (or .def_125 .def_123))) (let ((.def_127 (not .def_126))) (let ((.def_128 (not .def_34))) (let ((.def_129 (or .def_128 .def_52))) (let ((.def_130 (and A1 .def_20))) (let ((.def_131 (or .def_130 .def_129))) (let ((.def_132 (not .def_131))) (let ((.def_133 (or .def_132 .def_127))) (let ((.def_134 (not .def_133))) (let ((.def_135 (* (- 1) x2))) (let ((.def_136 (+ .def_135 .def_17))) (let ((.def_137 (< .def_136 (- 1)))) (let ((.def_138 (not .def_137))) (let ((.def_139 (< .def_45 (- 1)))) (let ((.def_140 (and .def_139 .def_138))) (let ((.def_141 (not .def_140))) (let ((.def_142 (* 1 x4))) (let ((.def_143 (< .def_142 1))) (let ((.def_144 (+ .def_69 .def_28))) (let ((.def_145 (< .def_144 (- 1)))) (let ((.def_146 (and .def_145 .def_143))) (let ((.def_147 (and .def_146 .def_141))) (let ((.def_148 (* 1 x7))) (let ((.def_149 (+ .def_148 .def_45))) (let ((.def_150 (< .def_149 1))) (let ((.def_151 (= .def_51 .def_150))) (let ((.def_152 (< .def_69 1))) (let ((.def_153 (not .def_152))) (let ((.def_154 (and .def_76 .def_153))) (let ((.def_155 (not .def_154))) (let ((.def_156 (and .def_155 .def_151))) (let ((.def_157 (and .def_156 .def_147))) (let ((.def_158 (and .def_157 .def_134))) (let ((.def_159 (not .def_158))) (let ((.def_160 (and .def_159 .def_121))) (let ((.def_161 (or .def_160 .def_89))) (let ((.def_162 (+ .def_9 .def_148))) (let ((.def_163 (< .def_162 1))) (let ((.def_164 (not .def_163))) (let ((.def_165 (< .def_29 1))) (let ((.def_166 (not .def_165))) (let ((.def_167 (and .def_166 .def_164))) (let ((.def_168 (not .def_167))) (let ((.def_169 (not .def_150))) (let ((.def_170 (or A7 .def_169))) (let ((.def_171 (or .def_170 .def_168))) (let ((.def_172 (not .def_171))) (let ((.def_173 (+ .def_58 .def_69))) (let ((.def_174 (< .def_173 1))) (let ((.def_175 (or .def_174 .def_122))) (let ((.def_176 (not .def_175))) (let ((.def_177 (and A2 .def_51))) (let ((.def_178 (not .def_177))) (let ((.def_179 (and .def_178 .def_176))) (let ((.def_180 (or .def_179 .def_172))) (let ((.def_181 (not A0))) (let ((.def_182 (< .def_142 (- 1)))) (let ((.def_183 (and .def_182 .def_181))) (let ((.def_184 (not .def_183))) (let ((.def_185 (< .def_58 1))) (let ((.def_186 (or A8 .def_185))) (let ((.def_187 (not .def_186))) (let ((.def_188 (and .def_187 .def_184))) (let ((.def_189 (or A0 A4))) (let ((.def_190 (not .def_139))) (let ((.def_191 (and .def_190 .def_51))) (let ((.def_192 (not .def_191))) (let ((.def_193 (or .def_192 .def_189))) (let ((.def_194 (not .def_193))) (let ((.def_195 (and .def_194 .def_188))) (let ((.def_196 (or .def_195 .def_180))) (let ((.def_197 (* 1 x8))) (let ((.def_198 (+ .def_197 .def_2))) (let ((.def_199 (< .def_198 (- 1)))) (let ((.def_200 (or .def_199 .def_80))) (let ((.def_201 (not .def_200))) (let ((.def_202 (not A2))) (let ((.def_203 (or .def_77 .def_202))) (let ((.def_204 (not .def_203))) (let ((.def_205 (and .def_204 .def_201))) (let ((.def_206 (not .def_205))) (let ((.def_207 (+ .def_58 .def_17))) (let ((.def_208 (< .def_207 (- 1)))) (let ((.def_209 (not .def_208))) (let ((.def_210 (or A9 .def_209))) (let ((.def_211 (not .def_210))) (let ((.def_212 (+ .def_29 .def_197))) (let ((.def_213 (< .def_212 (- 1)))) (let ((.def_214 (not .def_213))) (let ((.def_215 (< .def_28 (- 1)))) (let ((.def_216 (not .def_215))) (let ((.def_217 (or .def_216 .def_214))) (let ((.def_218 (not .def_217))) (let ((.def_219 (or .def_218 .def_211))) (let ((.def_220 (and .def_219 .def_206))) (let ((.def_221 (or A2 .def_80))) (let ((.def_222 (+ .def_3 .def_17))) (let ((.def_223 (< .def_222 (- 1)))) (let ((.def_224 (not .def_223))) (let ((.def_225 (and .def_224 .def_80))) (let ((.def_226 (or .def_225 .def_221))) (let ((.def_227 (not .def_226))) (let ((.def_228 (< .def_3 (- 1)))) (let ((.def_229 (not .def_228))) (let ((.def_230 (and .def_229 A9))) (let ((.def_231 (not .def_230))) (let ((.def_232 (not .def_182))) (let ((.def_233 (and A3 .def_232))) (let ((.def_234 (not .def_233))) (let ((.def_235 (or .def_234 .def_231))) (let ((.def_236 (and .def_235 .def_227))) (let ((.def_237 (not .def_236))) (let ((.def_238 (= .def_237 .def_220))) (let ((.def_239 (and .def_238 .def_196))) (let ((.def_240 (not .def_239))) (let ((.def_241 (< .def_58 (- 1)))) (let ((.def_242 (not .def_241))) (let ((.def_243 (and A2 .def_242))) (let ((.def_244 (not .def_243))) (let ((.def_245 (+ .def_148 .def_24))) (let ((.def_246 (< .def_245 1))) (let ((.def_247 (or .def_44 .def_246))) (let ((.def_248 (or .def_247 .def_244))) (let ((.def_249 (not .def_248))) (let ((.def_250 (or .def_185 .def_153))) (let ((.def_251 (not .def_250))) (let ((.def_252 (or .def_44 A2))) (let ((.def_253 (not .def_252))) (let ((.def_254 (or .def_253 .def_251))) (let ((.def_255 (not .def_254))) (let ((.def_256 (and .def_255 .def_249))) (let ((.def_257 (not .def_256))) (let ((.def_258 (+ .def_98 .def_197))) (let ((.def_259 (< .def_258 1))) (let ((.def_260 (not .def_259))) (let ((.def_261 (+ .def_0 .def_2))) (let ((.def_262 (< .def_261 (- 1)))) (let ((.def_263 (not .def_262))) (let ((.def_264 (or .def_263 .def_260))) (let ((.def_265 (not .def_264))) (let ((.def_266 (+ .def_148 .def_58))) (let ((.def_267 (< .def_266 (- 1)))) (let ((.def_268 (or .def_267 .def_52))) (let ((.def_269 (or .def_268 .def_265))) (let ((.def_270 (not .def_269))) (let ((.def_271 (and .def_153 .def_80))) (let ((.def_272 (not .def_271))) (let ((.def_273 (+ .def_24 .def_29))) (let ((.def_274 (< .def_273 (- 1)))) (let ((.def_275 (and .def_274 .def_76))) (let ((.def_276 (not .def_275))) (let ((.def_277 (or .def_276 .def_272))) (let ((.def_278 (not .def_277))) (let ((.def_279 (or .def_278 .def_270))) (let ((.def_280 (or .def_279 .def_257))) (let ((.def_281 (not .def_280))) (let ((.def_282 (* 1 x0))) (let ((.def_283 (+ .def_8 .def_282))) (let ((.def_284 (< .def_283 (- 1)))) (let ((.def_285 (not .def_284))) (let ((.def_286 (or A0 .def_285))) (let ((.def_287 (+ .def_0 .def_69))) (let ((.def_288 (< .def_287 1))) (let ((.def_289 (not .def_288))) (let ((.def_290 (or .def_76 .def_289))) (let ((.def_291 (not .def_290))) (let ((.def_292 (and .def_291 .def_286))) (let ((.def_293 (or A5 .def_122))) (let ((.def_294 (+ .def_29 .def_8))) (let ((.def_295 (< .def_294 (- 1)))) (let ((.def_296 (not .def_295))) (let ((.def_297 (= .def_296 A6))) (let ((.def_298 (not .def_297))) (let ((.def_299 (= .def_298 .def_293))) (let ((.def_300 (not .def_299))) (let ((.def_301 (= .def_300 .def_292))) (let ((.def_302 (not .def_301))) (let ((.def_303 (+ .def_28 .def_0))) (let ((.def_304 (< .def_303 1))) (let ((.def_305 (and A7 .def_304))) (let ((.def_306 (not .def_305))) (let ((.def_307 (or A6 .def_20))) (let ((.def_308 (not .def_307))) (let ((.def_309 (and .def_308 .def_306))) (let ((.def_310 (< .def_113 (- 1)))) (let ((.def_311 (not .def_310))) (let ((.def_312 (+ .def_24 .def_98))) (let ((.def_313 (< .def_312 (- 1)))) (let ((.def_314 (or .def_313 .def_311))) (let ((.def_315 (not .def_314))) (let ((.def_316 (< .def_2 (- 1)))) (let ((.def_317 (or .def_52 .def_316))) (let ((.def_318 (not .def_317))) (let ((.def_319 (or .def_318 .def_315))) (let ((.def_320 (and .def_319 .def_309))) (let ((.def_321 (not .def_320))) (let ((.def_322 (or .def_321 .def_302))) (let ((.def_323 (= .def_322 .def_281))) (let ((.def_324 (not .def_323))) (let ((.def_325 (and .def_324 .def_240))) (let ((.def_326 (not .def_325))) (let ((.def_327 (and .def_326 .def_161))) (let ((.def_328 (not .def_327))) (let ((.def_329 (<= x9 1))) (let ((.def_330 (<= 0 x9))) (let ((.def_331 (<= x8 1))) (let ((.def_332 (<= 0 x8))) (let ((.def_333 (<= x7 1))) (let ((.def_334 (<= 0 x7))) (let ((.def_335 (<= x6 1))) (let ((.def_336 (<= 0 x6))) (let ((.def_337 (<= x5 1))) (let ((.def_338 (<= 0 x5))) (let ((.def_339 (<= x4 1))) (let ((.def_340 (<= 0 x4))) (let ((.def_341 (<= x3 1))) (let ((.def_342 (<= 0 x3))) (let ((.def_343 (<= x2 1))) (let ((.def_344 (<= 0 x2))) (let ((.def_345 (<= x1 1))) (let ((.def_346 (<= 0 x1))) (let ((.def_347 (<= x0 1))) (let ((.def_348 (<= 0 x0))) (let ((.def_349 (and .def_348 .def_347 .def_346 .def_345 .def_344 .def_343 .def_342 .def_341 .def_340 .def_339 .def_338 .def_337 .def_336 .def_335 .def_334 .def_333 .def_332 .def_331 .def_330 .def_329 .def_328))) .def_349)))))))))))))))))))))))))))))))))))))))))))))))))))))))))))))))))))))))))))))))))))))))))))))))))))))))))))))))))))))))))))))))))))))))))))))))))))))))))))))))))))))))))))))))))))))))))))))))))))))))))))))))))))))))))))))))))))))))))))))))))))))))))))))))))))))))))))))))))))))))))))))))))))))))))))))))))))))))))))))))))))))))))))))))))))))))))))))))
(check-sat)
